(set-option :produce-models true)
(set-logic QF_UF)
(declare-fun p1() Bool)
(declare-fun p9() Bool)
(declare-fun p69() Bool)
(declare-fun p16() Bool)
(declare-fun p7() Bool)
(declare-fun p39() Bool)
(declare-fun p43() Bool)
(declare-fun p40() Bool)
(declare-fun p52() Bool)
(declare-fun p0() Bool)
(declare-fun p68() Bool)
(declare-fun p44() Bool)
(declare-fun p34() Bool)
(declare-fun p20() Bool)
(declare-fun p29() Bool)
(declare-fun p17() Bool)
(declare-fun p51() Bool)
(declare-fun p18() Bool)
(declare-fun p3() Bool)
(declare-fun p66() Bool)
(declare-fun p21() Bool)
(declare-fun p22() Bool)
(declare-fun p12() Bool)
(declare-fun p55() Bool)
(declare-fun p67() Bool)
(declare-fun p56() Bool)
(declare-fun p38() Bool)
(declare-fun p57() Bool)
(declare-fun p28() Bool)
(declare-fun p60() Bool)
(declare-fun p45() Bool)
(declare-fun p62() Bool)
(declare-fun p65() Bool)
(declare-fun p36() Bool)
(declare-fun p24() Bool)
(declare-fun p64() Bool)
(declare-fun p32() Bool)
(declare-fun p33() Bool)
(declare-fun p58() Bool)
(declare-fun p8() Bool)
(declare-fun p61() Bool)
(declare-fun p11() Bool)
(declare-fun p46() Bool)
(declare-fun p5() Bool)
(declare-fun p53() Bool)
(declare-fun p59() Bool)
(declare-fun p2() Bool)
(declare-fun p6() Bool)
(declare-fun p26() Bool)
(declare-fun p10() Bool)
(declare-fun p15() Bool)
(declare-fun p19() Bool)
(declare-fun p37() Bool)
(declare-fun p48() Bool)
(declare-fun p54() Bool)
(declare-fun p49() Bool)
(declare-fun p25() Bool)
(declare-fun p31() Bool)
(declare-fun p47() Bool)
(declare-fun p13() Bool)
(declare-fun p30() Bool)
(declare-fun p50() Bool)
(declare-fun p23() Bool)
(declare-fun p41() Bool)
(declare-fun p27() Bool)
(declare-fun p35() Bool)
(declare-fun p4() Bool)
(declare-fun p42() Bool)
(declare-fun p14() Bool)
(declare-fun p63() Bool)
(assert
(and (or p1 p9 p69) (or (not p16) p7 (not p39)) (or (not p43) (not p40) (not p52)) (or p0 (not p40) (not p68)) (or (not p44) p34 (not p20)) (or (not p29) p17 p51) (or (not p18) (not p3) p66) (or p21 p22 (not p12)) (or p40 (not p16) (not p43)) (or p55 p16 p51) (or (not p67) p56 p38) (or p57 (not p9) (not p56)) (or p28 p22 (not p60)) (or (not p43) p45 p1) (or p39 p62 p65) (or (not p36) p24 p34) (or (not p64) (not p32) (not p33)) (or (not p58) p8 p61) (or p11 (not p46) p5) (or p20 p65 p55) (or (not p53) (not p8) (not p57)) (or (not p59) p2 p11) (or p29 (not p62) p6) (or p20 p36 (not p60)) (or p68 (not p26) p59) (or (not p56) p10 p20) (or (not p46) (not p15) (not p36)) (or p9 p44 (not p29)) (or (not p19) p59 (not p64)) (or p21 (not p37) (not p18)) (or p64 p48 (not p56)) (or (not p44) p19 (not p56)) (or (not p54) (not p49) (not p25)) (or (not p6) (not p31) (not p47)) (or p69 p20 p28) (or (not p11) (not p2) p12) (or (not p3) p13 (not p30)) (or p44 p28 (not p61)) (or (not p57) (not p57) (not p39)) (or p53 p68 (not p10)) (or (not p1) p20 (not p34)) (or p9 p11 p31) (or p66 p60 p50) (or p23 p3 p2) (or p1 p28 (not p65)) (or p20 p24 (not p29)) (or (not p40) (not p23) (not p37)) (or (not p11) p2 p45) (or (not p56) (not p48) (not p37)) (or p23 p0 (not p20)) (or (not p64) p16 p61) (or (not p23) p23 p29) (or p48 p39 (not p26)) (or p59 p13 p51) (or (not p47) (not p41) p53) (or p52 (not p27) p60) (or p36 p44 (not p31)) (or p57 (not p24) p8) (or p12 (not p33) (not p9)) (or p55 (not p13) (not p35)) (or (not p1) (not p41) p26) (or (not p47) (not p45) p50) (or (not p55) (not p3) p65) (or p59 (not p17) p45) (or (not p2) (not p62) p18) (or p26 p49 (not p57)) (or p40 (not p0) p27) (or p49 p54 p8) (or p6 (not p17) p16) (or (not p28) p11 (not p16)) (or (not p32) p56 (not p9)) (or (not p64) p64 (not p3)) (or p68 p20 p29) (or (not p15) p15 (not p26)) (or p47 (not p23) (not p57)) (or (not p53) (not p27) (not p68)) (or p64 p4 (not p47)) (or (not p8) (not p24) (not p0)) (or p36 p57 (not p54)) (or p42 (not p44) (not p54)) (or p0 (not p58) (not p37)) (or (not p49) p9 (not p33)) (or p64 (not p41) p48) (or (not p10) (not p20) (not p16)) (or (not p6) (not p39) (not p30)) (or (not p26) (not p51) (not p4)) (or (not p65) (not p14) (not p20)) (or p18 p22 p64) (or (not p60) (not p48) (not p64)) (or (not p28) p43 p37) (or p1 (not p55) p54) (or (not p20) (not p29) p53) (or p63 (not p20) (not p25)) (or p42 (not p63) p24) (or p69 (not p64) (not p50)) (or (not p51) (not p5) p52) (or (not p43) (not p41) p51) (or p15 p57 (not p28)) (or (not p0) (not p2) p49) (or (not p64) (not p6) (not p16)) (or (not p65) p12 p60) (or (not p9) (not p48) p67) (or (not p2) (not p24) p23) (or p35 (not p66) p14) (or (not p63) p68 (not p38)) (or (not p64) (not p42) (not p23)) (or (not p10) p60 (not p58)) (or (not p5) (not p36) p0) (or (not p19) p6 (not p8)) (or p48 p19 p40) (or p33 p11 (not p32)) (or p25 p13 (not p20)) (or (not p43) p17 p31) (or p62 (not p4) p50) (or p41 (not p36) p49) (or (not p2) (not p65) p23) (or p64 p64 p10) (or (not p36) p22 (not p21)) (or (not p40) p24 p40) (or p57 (not p15) (not p10)) (or (not p26) p51 p18) (or (not p36) (not p49) (not p9)) (or (not p66) p64 p30) (or (not p10) p47 p31) (or p5 p20 p46) (or p35 (not p56) (not p57)) (or (not p55) p63 p7) (or p55 (not p46) p61) (or p2 (not p54) p42) (or p48 p8 (not p23)) (or (not p32) p52 (not p27)) (or p48 p27 (not p13)) (or p47 (not p34) (not p65)) (or (not p31) p12 (not p39)) (or (not p49) p58 (not p41)) (or (not p61) (not p3) p10) (or p3 p15 (not p10)) (or (not p48) (not p50) p23) (or p50 p10 (not p34)) (or (not p65) (not p42) (not p44)) (or (not p16) p38 p19) (or (not p20) p18 p39) (or (not p66) p16 (not p43)) (or (not p1) p20 (not p33)) (or p3 p23 p41) (or (not p21) (not p56) p53) (or p45 (not p25) (not p58)) (or p30 (not p17) (not p11)) (or (not p24) (not p46) p28) (or p31 p49 (not p67)) (or p21 (not p47) p33) (or (not p3) p30 p33) (or (not p7) p30 p33) (or p31 (not p47) (not p25)) (or (not p26) p12 (not p69)) (or (not p11) (not p54) (not p64)) (or p31 (not p34) p34) (or (not p17) p33 (not p45)) (or p38 (not p38) (not p46)) (or (not p37) (not p39) (not p5)) (or (not p66) (not p43) p21) (or p0 (not p35) (not p23)) (or (not p56) p59 (not p39)) (or (not p65) (not p1) (not p64)) (or (not p62) (not p1) (not p30)) (or (not p28) (not p14) p28) (or (not p20) (not p31) p60) (or (not p7) (not p26) (not p41)) (or (not p37) (not p69) (not p42)) (or (not p1) (not p28) (not p44)) (or (not p61) (not p65) (not p32)) (or (not p64) (not p33) p50) (or (not p30) p32 (not p16)) (or p40 (not p4) p13) (or p57 p0 p13) (or (not p64) p38 p30) (or p23 p52 p68) (or p3 p28 p27) (or (not p47) p44 (not p43)) (or (not p10) (not p54) p58) (or p26 p7 (not p41)) (or (not p29) p19 (not p31)) (or p49 p19 (not p55)) (or p61 (not p14) (not p29)) (or (not p32) p32 (not p63)) (or p13 p48 p5) (or p63 p13 p10) (or (not p68) (not p37) (not p57)) (or (not p40) p25 (not p31)) (or p53 (not p57) p65) (or (not p35) (not p6) p14) (or p13 (not p5) p63) (or (not p5) (not p67) p5) (or p51 (not p47) p26) (or p67 p62 (not p20)) (or p38 (not p18) p62) (or p8 p53 p63) (or p15 p31 (not p67)) (or (not p55) p57 (not p14)) (or (not p65) (not p13) p41) (or p63 p52 (not p60)) (or p55 (not p31) (not p55)) (or (not p26) (not p23) p11) (or (not p33) p8 (not p42)) (or (not p63) p59 (not p44)) (or p34 (not p59) p44) (or p35 (not p51) (not p12)) (or p47 (not p60) (not p12)) (or (not p30) p31 (not p58)) (or p19 p56 p0) (or (not p1) (not p20) p60) (or p52 p37 (not p13)) (or (not p1) p65 p53) (or p53 (not p34) p42) (or (not p9) p45 (not p6)) (or p24 p7 (not p16)) (or p28 (not p3) p58) (or (not p25) (not p6) (not p32)) (or p62 p43 (not p51)) (or p38 p39 p30) (or (not p55) p21 p17) (or p40 (not p26) (not p61)) (or p13 p4 p23) (or (not p12) (not p26) (not p38)) (or p23 p0 p31) (or p60 (not p47) (not p29)) (or (not p19) (not p31) (not p56)) (or (not p53) p25 p18) (or (not p3) (not p58) p40) (or (not p2) p11 p51) (or p3 p6 (not p25)) (or (not p32) (not p47) p52) (or (not p51) (not p47) p44) (or (not p12) p34 (not p58)) (or (not p21) p15 p28) (or p67 (not p3) (not p6)) (or p20 (not p37) (not p10)) (or (not p7) p31 p19) (or p58 p27 p29) (or (not p45) p8 (not p15)) (or p12 p44 (not p44)) (or (not p20) p32 (not p11)) (or (not p36) p55 p5) (or p52 p29 p64) (or p40 (not p20) p41) (or p25 p2 (not p22)) (or p64 p14 p0) (or p42 (not p3) p24) (or (not p11) p18 (not p5)) (or (not p59) (not p68) (not p61)) (or (not p36) p7 p61) (or (not p35) (not p61) p14) (or p30 p43 p26) (or (not p10) (not p60) p17) (or (not p13) p32 (not p32)) (or p16 (not p61) p12) (or (not p58) p44 (not p69)) (or (not p28) (not p33) (not p30)) (or (not p49) p39 p36) (or (not p30) p4 p64) (or (not p35) p20 (not p30)) (or p51 (not p18) p9) (or (not p50) (not p39) (not p25)) (or (not p21) p32 (not p12)) (or p34 p67 p40) (or p65 (not p52) p53) (or p38 (not p54) p62) (or p56 p52 (not p46)) (or (not p29) p17 (not p36)) (or p67 (not p35) (not p24)) (or (not p28) p59 p21) (or (not p64) (not p11) (not p24)) (or p53 (not p17) p22) (or p43 p21 p25) (or (not p28) p30 (not p39)) (or (not p28) (not p45) (not p22)) (or (not p31) p30 p22) (or p11 p1 p24) (or (not p68) p44 (not p25)) (or p27 p66 p16) (or (not p53) p59 p64) (or (not p54) p9 p65) (or p5 p42 (not p10)) (or (not p25) (not p13) p64) (or p57 p21 (not p43)) (or p66 (not p21) p58) (or (not p34) (not p64) (not p13)) (or p23 p6 (not p61)) (or p28 p8 p7) (or (not p22) (not p68) (not p13)) (or (not p5) (not p2) (not p30)) (or (not p20) (not p12) (not p0)) (or (not p46) (not p51) p34) (or p64 p66 (not p6)) (or (not p17) p42 p20) (or p26 p66 p0) (or (not p53) p37 (not p39)))
)
(check-sat)
(get-model)
